
Gurobi 12.0.0 (win64) logging started Mon May  4 20:51:35 2026

Set parameter LogFile to value "C:\Users\Asus\Documents\GitHub\logistics-model2\internal-logistics-model2\results\SR_SV_WT\case3\result_SR_SV_WT_case3_P5_eps9999_2026_05_04_20_51.log"
Gurobi Optimizer version 12.0.0 build v12.0.0rc1 (win64 - Windows 10.0 (19045.2))

CPU model: 12th Gen Intel(R) Core(TM) i7-12650H, instruction set [SSE2|AVX|AVX2]
Thread count: 10 physical cores, 16 logical processors, using up to 16 threads

Non-default parameters:
TimeLimit  600
MIPGap  0.01
Presolve  2

Optimize a model with 2717 rows, 813 columns and 13585 nonzeros
Model fingerprint: 0x740cfa22
Variable types: 133 continuous, 680 integer (655 binary)
Coefficient statistics:
  Matrix range     [1e+00, 5e+02]
  Objective range  [1e-03, 1e+00]
  Bounds range     [1e+00, 3e+01]
  RHS range        [1e+00, 1e+04]
Presolve removed 2509 rows and 731 columns
Presolve time: 0.01s
Presolved: 208 rows, 82 columns, 873 nonzeros
Variable types: 24 continuous, 58 integer (51 binary)
Found heuristic solution: objective 265.1130000
Root relaxation presolve removed 21 rows and 1 columns
Root relaxation presolved: 187 rows, 81 columns, 826 nonzeros


Root relaxation: objective 8.600000e+01, 56 iterations, 0.00 seconds (0.00 work units)

    Nodes    |    Current Node    |     Objective Bounds      |     Work
 Expl Unexpl |  Obj  Depth IntInf | Incumbent    BestBd   Gap | It/Node Time

     0     0   86.00000    0   12  265.11300   86.00000  67.6%     -    0s
H    0     0                     208.0980000   86.00000  58.7%     -    0s
H    0     0                     190.0960000   86.00000  54.8%     -    0s
H    0     0                     177.0990000   86.00000  51.4%     -    0s
H    0     0                     167.0960000   86.00000  48.5%     -    0s
     0     0   86.00000    0   18  167.09600   86.00000  48.5%     -    0s
H    0     0                     154.0880000   86.00000  44.2%     -    0s
     0     0   86.00000    0   18  154.08800   86.00000  44.2%     -    0s
H    0     0                     132.0860000   92.00898  30.3%     -    0s
     0     0   94.23510    0   26  132.08600   94.23510  28.7%     -    0s
     0     0   96.31257    0   22  132.08600   96.31257  27.1%     -    0s
H    0     0                     130.0850000   96.42519  25.9%     -    0s
     0     0  102.50286    0   18  130.08500  102.50286  21.2%     -    0s
     0     0  104.45484    0   18  130.08500  104.45484  19.7%     -    0s
     0     0  104.45484    0   18  130.08500  104.45484  19.7%     -    0s
     0     0  112.07550    0   13  130.08500  112.07550  13.8%     -    0s
     0     0  112.07600    0   13  130.08500  112.07600  13.8%     -    0s
     0     0  116.07556    0    7  130.08500  116.07556  10.8%     -    0s
     0     0  116.09692    0   15  130.08500  116.09692  10.8%     -    0s
     0     0  116.21520    0   15  130.08500  116.21520  10.7%     -    0s
     0     0  116.35333    0   15  130.08500  116.35333  10.6%     -    0s
     0     0  116.49667    0   16  130.08500  116.49667  10.4%     -    0s
     0     0  116.49667    0   16  130.08500  116.49667  10.4%     -    0s
     0     0  116.49667    0   18  130.08500  116.49667  10.4%     -    0s
     0     0  116.49667    0   12  130.08500  116.49667  10.4%     -    0s
     0     0  116.57600    0   15  130.08500  116.57600  10.4%     -    0s
     0     0  116.57600    0   18  130.08500  116.57600  10.4%     -    0s
     0     0  120.10047    0   10  130.08500  120.10047  7.68%     -    0s
     0     0  120.10047    0   20  130.08500  120.10047  7.68%     -    0s
     0     0  121.68571    0   20  130.08500  121.68571  6.46%     -    0s
     0     0  122.34132    0   20  130.08500  122.34132  5.95%     -    0s

Cutting planes:
  Learned: 1
  Implied bound: 4
  MIR: 21
  Relax-and-lift: 3

Explored 1 nodes (563 simplex iterations) in 0.09 seconds (0.05 work units)
Thread count was 16 (of 16 available processors)

Solution count 9: 130.085 132.086 132.086 ... 265.113

Optimal solution found (tolerance 1.00e-02)
Best objective 1.300850000000e+02, best bound 1.300472683322e+02, gap 0.0290%
